p cnf 637 2107
1 2 3 4 5 6 7 0
8 9 10 11 12 13 14 0
15 16 17 18 19 20 21 0
22 23 24 25 26 27 28 0
29 30 31 32 33 34 35 0
36 37 38 39 40 41 42 0
43 44 45 46 47 48 49 0
50 51 52 53 54 55 56 0
57 58 59 60 61 62 63 0
64 65 66 67 68 69 70 0
71 72 73 74 75 76 77 0
78 79 80 81 82 83 84 0
85 86 87 88 89 90 91 0
92 93 94 95 96 97 98 0
99 100 101 102 103 104 105 0
106 107 108 109 110 111 112 0
113 114 115 116 117 118 119 0
120 121 122 123 124 125 126 0
127 128 129 130 131 132 133 0
134 135 136 137 138 139 140 0
141 142 143 144 145 146 147 0
148 149 150 151 152 153 154 0
155 156 157 158 159 160 161 0
162 163 164 165 166 167 168 0
169 170 171 172 173 174 175 0
176 177 178 179 180 181 182 0
183 184 185 186 187 188 189 0
190 191 192 193 194 195 196 0
197 198 199 200 201 202 203 0
204 205 206 207 208 209 210 0
211 212 213 214 215 216 217 0
218 219 220 221 222 223 224 0
225 226 227 228 229 230 231 0
232 233 234 235 236 237 238 0
239 240 241 242 243 244 245 0
246 247 248 249 250 251 252 0
253 254 255 256 257 258 259 0
260 261 262 263 264 265 266 0
267 268 269 270 271 272 273 0
274 275 276 277 278 279 280 0
281 282 283 284 285 286 287 0
288 289 290 291 292 293 294 0
295 296 297 298 299 300 301 0
302 303 304 305 306 307 308 0
309 310 311 312 313 314 315 0
316 317 318 319 320 321 322 0
323 324 325 326 327 328 329 0
330 331 332 333 334 335 336 0
337 338 339 340 341 342 343 0
-1 -344 0
-1 -345 0
-1 -346 0
-8 344 0
-8 -345 0
-8 -346 0
-15 -344 0
-15 345 0
-15 -346 0
-22 344 0
-22 345 0
-22 -346 0
-29 -344 0
-29 -345 0
-29 346 0
-36 344 0
-36 -345 0
-36 346 0
-43 -344 0
-43 345 0
-43 346 0
-2 -347 0
-2 -348 0
-2 -349 0
-9 347 0
-9 -348 0
-9 -349 0
-16 -347 0
-16 348 0
-16 -349 0
-23 347 0
-23 348 0
-23 -349 0
-30 -347 0
-30 -348 0
-30 349 0
-37 347 0
-37 -348 0
-37 349 0
-44 -347 0
-44 348 0
-44 349 0
-3 -350 0
-3 -351 0
-3 -352 0
-10 350 0
-10 -351 0
-10 -352 0
-17 -350 0
-17 351 0
-17 -352 0
-24 350 0
-24 351 0
-24 -352 0
-31 -350 0
-31 -351 0
-31 352 0
-38 350 0
-38 -351 0
-38 352 0
-45 -350 0
-45 351 0
-45 352 0
-4 -353 0
-4 -354 0
-4 -355 0
-11 353 0
-11 -354 0
-11 -355 0
-18 -353 0
-18 354 0
-18 -355 0
-25 353 0
-25 354 0
-25 -355 0
-32 -353 0
-32 -354 0
-32 355 0
-39 353 0
-39 -354 0
-39 355 0
-46 -353 0
-46 354 0
-46 355 0
-5 -356 0
-5 -357 0
-5 -358 0
-12 356 0
-12 -357 0
-12 -358 0
-19 -356 0
-19 357 0
-19 -358 0
-26 356 0
-26 357 0
-26 -358 0
-33 -356 0
-33 -357 0
-33 358 0
-40 356 0
-40 -357 0
-40 358 0
-47 -356 0
-47 357 0
-47 358 0
-6 -359 0
-6 -360 0
-6 -361 0
-13 359 0
-13 -360 0
-13 -361 0
-20 -359 0
-20 360 0
-20 -361 0
-27 359 0
-27 360 0
-27 -361 0
-34 -359 0
-34 -360 0
-34 361 0
-41 359 0
-41 -360 0
-41 361 0
-48 -359 0
-48 360 0
-48 361 0
-7 -362 0
-7 -363 0
-7 -364 0
-14 362 0
-14 -363 0
-14 -364 0
-21 -362 0
-21 363 0
-21 -364 0
-28 362 0
-28 363 0
-28 -364 0
-35 -362 0
-35 -363 0
-35 364 0
-42 362 0
-42 -363 0
-42 364 0
-49 -362 0
-49 363 0
-49 364 0
-50 -365 0
-50 -366 0
-50 -367 0
-57 365 0
-57 -366 0
-57 -367 0
-64 -365 0
-64 366 0
-64 -367 0
-71 365 0
-71 366 0
-71 -367 0
-78 -365 0
-78 -366 0
-78 367 0
-85 365 0
-85 -366 0
-85 367 0
-92 -365 0
-92 366 0
-92 367 0
-51 -368 0
-51 -369 0
-51 -370 0
-58 368 0
-58 -369 0
-58 -370 0
-65 -368 0
-65 369 0
-65 -370 0
-72 368 0
-72 369 0
-72 -370 0
-79 -368 0
-79 -369 0
-79 370 0
-86 368 0
-86 -369 0
-86 370 0
-93 -368 0
-93 369 0
-93 370 0
-52 -371 0
-52 -372 0
-52 -373 0
-59 371 0
-59 -372 0
-59 -373 0
-66 -371 0
-66 372 0
-66 -373 0
-73 371 0
-73 372 0
-73 -373 0
-80 -371 0
-80 -372 0
-80 373 0
-87 371 0
-87 -372 0
-87 373 0
-94 -371 0
-94 372 0
-94 373 0
-53 -374 0
-53 -375 0
-53 -376 0
-60 374 0
-60 -375 0
-60 -376 0
-67 -374 0
-67 375 0
-67 -376 0
-74 374 0
-74 375 0
-74 -376 0
-81 -374 0
-81 -375 0
-81 376 0
-88 374 0
-88 -375 0
-88 376 0
-95 -374 0
-95 375 0
-95 376 0
-54 -377 0
-54 -378 0
-54 -379 0
-61 377 0
-61 -378 0
-61 -379 0
-68 -377 0
-68 378 0
-68 -379 0
-75 377 0
-75 378 0
-75 -379 0
-82 -377 0
-82 -378 0
-82 379 0
-89 377 0
-89 -378 0
-89 379 0
-96 -377 0
-96 378 0
-96 379 0
-55 -380 0
-55 -381 0
-55 -382 0
-62 380 0
-62 -381 0
-62 -382 0
-69 -380 0
-69 381 0
-69 -382 0
-76 380 0
-76 381 0
-76 -382 0
-83 -380 0
-83 -381 0
-83 382 0
-90 380 0
-90 -381 0
-90 382 0
-97 -380 0
-97 381 0
-97 382 0
-56 -383 0
-56 -384 0
-56 -385 0
-63 383 0
-63 -384 0
-63 -385 0
-70 -383 0
-70 384 0
-70 -385 0
-77 383 0
-77 384 0
-77 -385 0
-84 -383 0
-84 -384 0
-84 385 0
-91 383 0
-91 -384 0
-91 385 0
-98 -383 0
-98 384 0
-98 385 0
-99 -386 0
-99 -387 0
-99 -388 0
-106 386 0
-106 -387 0
-106 -388 0
-113 -386 0
-113 387 0
-113 -388 0
-120 386 0
-120 387 0
-120 -388 0
-127 -386 0
-127 -387 0
-127 388 0
-134 386 0
-134 -387 0
-134 388 0
-141 -386 0
-141 387 0
-141 388 0
-100 -389 0
-100 -390 0
-100 -391 0
-107 389 0
-107 -390 0
-107 -391 0
-114 -389 0
-114 390 0
-114 -391 0
-121 389 0
-121 390 0
-121 -391 0
-128 -389 0
-128 -390 0
-128 391 0
-135 389 0
-135 -390 0
-135 391 0
-142 -389 0
-142 390 0
-142 391 0
-101 -392 0
-101 -393 0
-101 -394 0
-108 392 0
-108 -393 0
-108 -394 0
-115 -392 0
-115 393 0
-115 -394 0
-122 392 0
-122 393 0
-122 -394 0
-129 -392 0
-129 -393 0
-129 394 0
-136 392 0
-136 -393 0
-136 394 0
-143 -392 0
-143 393 0
-143 394 0
-102 -395 0
-102 -396 0
-102 -397 0
-109 395 0
-109 -396 0
-109 -397 0
-116 -395 0
-116 396 0
-116 -397 0
-123 395 0
-123 396 0
-123 -397 0
-130 -395 0
-130 -396 0
-130 397 0
-137 395 0
-137 -396 0
-137 397 0
-144 -395 0
-144 396 0
-144 397 0
-103 -398 0
-103 -399 0
-103 -400 0
-110 398 0
-110 -399 0
-110 -400 0
-117 -398 0
-117 399 0
-117 -400 0
-124 398 0
-124 399 0
-124 -400 0
-131 -398 0
-131 -399 0
-131 400 0
-138 398 0
-138 -399 0
-138 400 0
-145 -398 0
-145 399 0
-145 400 0
-104 -401 0
-104 -402 0
-104 -403 0
-111 401 0
-111 -402 0
-111 -403 0
-118 -401 0
-118 402 0
-118 -403 0
-125 401 0
-125 402 0
-125 -403 0
-132 -401 0
-132 -402 0
-132 403 0
-139 401 0
-139 -402 0
-139 403 0
-146 -401 0
-146 402 0
-146 403 0
-105 -404 0
-105 -405 0
-105 -406 0
-112 404 0
-112 -405 0
-112 -406 0
-119 -404 0
-119 405 0
-119 -406 0
-126 404 0
-126 405 0
-126 -406 0
-133 -404 0
-133 -405 0
-133 406 0
-140 404 0
-140 -405 0
-140 406 0
-147 -404 0
-147 405 0
-147 406 0
-148 -407 0
-148 -408 0
-148 -409 0
-155 407 0
-155 -408 0
-155 -409 0
-162 -407 0
-162 408 0
-162 -409 0
-169 407 0
-169 408 0
-169 -409 0
-176 -407 0
-176 -408 0
-176 409 0
-183 407 0
-183 -408 0
-183 409 0
-190 -407 0
-190 408 0
-190 409 0
-149 -410 0
-149 -411 0
-149 -412 0
-156 410 0
-156 -411 0
-156 -412 0
-163 -410 0
-163 411 0
-163 -412 0
-170 410 0
-170 411 0
-170 -412 0
-177 -410 0
-177 -411 0
-177 412 0
-184 410 0
-184 -411 0
-184 412 0
-191 -410 0
-191 411 0
-191 412 0
-150 -413 0
-150 -414 0
-150 -415 0
-157 413 0
-157 -414 0
-157 -415 0
-164 -413 0
-164 414 0
-164 -415 0
-171 413 0
-171 414 0
-171 -415 0
-178 -413 0
-178 -414 0
-178 415 0
-185 413 0
-185 -414 0
-185 415 0
-192 -413 0
-192 414 0
-192 415 0
-151 -416 0
-151 -417 0
-151 -418 0
-158 416 0
-158 -417 0
-158 -418 0
-165 -416 0
-165 417 0
-165 -418 0
-172 416 0
-172 417 0
-172 -418 0
-179 -416 0
-179 -417 0
-179 418 0
-186 416 0
-186 -417 0
-186 418 0
-193 -416 0
-193 417 0
-193 418 0
-152 -419 0
-152 -420 0
-152 -421 0
-159 419 0
-159 -420 0
-159 -421 0
-166 -419 0
-166 420 0
-166 -421 0
-173 419 0
-173 420 0
-173 -421 0
-180 -419 0
-180 -420 0
-180 421 0
-187 419 0
-187 -420 0
-187 421 0
-194 -419 0
-194 420 0
-194 421 0
-153 -422 0
-153 -423 0
-153 -424 0
-160 422 0
-160 -423 0
-160 -424 0
-167 -422 0
-167 423 0
-167 -424 0
-174 422 0
-174 423 0
-174 -424 0
-181 -422 0
-181 -423 0
-181 424 0
-188 422 0
-188 -423 0
-188 424 0
-195 -422 0
-195 423 0
-195 424 0
-154 -425 0
-154 -426 0
-154 -427 0
-161 425 0
-161 -426 0
-161 -427 0
-168 -425 0
-168 426 0
-168 -427 0
-175 425 0
-175 426 0
-175 -427 0
-182 -425 0
-182 -426 0
-182 427 0
-189 425 0
-189 -426 0
-189 427 0
-196 -425 0
-196 426 0
-196 427 0
-197 -428 0
-197 -429 0
-197 -430 0
-204 428 0
-204 -429 0
-204 -430 0
-211 -428 0
-211 429 0
-211 -430 0
-218 428 0
-218 429 0
-218 -430 0
-225 -428 0
-225 -429 0
-225 430 0
-232 428 0
-232 -429 0
-232 430 0
-239 -428 0
-239 429 0
-239 430 0
-198 -431 0
-198 -432 0
-198 -433 0
-205 431 0
-205 -432 0
-205 -433 0
-212 -431 0
-212 432 0
-212 -433 0
-219 431 0
-219 432 0
-219 -433 0
-226 -431 0
-226 -432 0
-226 433 0
-233 431 0
-233 -432 0
-233 433 0
-240 -431 0
-240 432 0
-240 433 0
-199 -434 0
-199 -435 0
-199 -436 0
-206 434 0
-206 -435 0
-206 -436 0
-213 -434 0
-213 435 0
-213 -436 0
-220 434 0
-220 435 0
-220 -436 0
-227 -434 0
-227 -435 0
-227 436 0
-234 434 0
-234 -435 0
-234 436 0
-241 -434 0
-241 435 0
-241 436 0
-200 -437 0
-200 -438 0
-200 -439 0
-207 437 0
-207 -438 0
-207 -439 0
-214 -437 0
-214 438 0
-214 -439 0
-221 437 0
-221 438 0
-221 -439 0
-228 -437 0
-228 -438 0
-228 439 0
-235 437 0
-235 -438 0
-235 439 0
-242 -437 0
-242 438 0
-242 439 0
-201 -440 0
-201 -441 0
-201 -442 0
-208 440 0
-208 -441 0
-208 -442 0
-215 -440 0
-215 441 0
-215 -442 0
-222 440 0
-222 441 0
-222 -442 0
-229 -440 0
-229 -441 0
-229 442 0
-236 440 0
-236 -441 0
-236 442 0
-243 -440 0
-243 441 0
-243 442 0
-202 -443 0
-202 -444 0
-202 -445 0
-209 443 0
-209 -444 0
-209 -445 0
-216 -443 0
-216 444 0
-216 -445 0
-223 443 0
-223 444 0
-223 -445 0
-230 -443 0
-230 -444 0
-230 445 0
-237 443 0
-237 -444 0
-237 445 0
-244 -443 0
-244 444 0
-244 445 0
-203 -446 0
-203 -447 0
-203 -448 0
-210 446 0
-210 -447 0
-210 -448 0
-217 -446 0
-217 447 0
-217 -448 0
-224 446 0
-224 447 0
-224 -448 0
-231 -446 0
-231 -447 0
-231 448 0
-238 446 0
-238 -447 0
-238 448 0
-245 -446 0
-245 447 0
-245 448 0
-246 -449 0
-246 -450 0
-246 -451 0
-253 449 0
-253 -450 0
-253 -451 0
-260 -449 0
-260 450 0
-260 -451 0
-267 449 0
-267 450 0
-267 -451 0
-274 -449 0
-274 -450 0
-274 451 0
-281 449 0
-281 -450 0
-281 451 0
-288 -449 0
-288 450 0
-288 451 0
-247 -452 0
-247 -453 0
-247 -454 0
-254 452 0
-254 -453 0
-254 -454 0
-261 -452 0
-261 453 0
-261 -454 0
-268 452 0
-268 453 0
-268 -454 0
-275 -452 0
-275 -453 0
-275 454 0
-282 452 0
-282 -453 0
-282 454 0
-289 -452 0
-289 453 0
-289 454 0
-248 -455 0
-248 -456 0
-248 -457 0
-255 455 0
-255 -456 0
-255 -457 0
-262 -455 0
-262 456 0
-262 -457 0
-269 455 0
-269 456 0
-269 -457 0
-276 -455 0
-276 -456 0
-276 457 0
-283 455 0
-283 -456 0
-283 457 0
-290 -455 0
-290 456 0
-290 457 0
-249 -458 0
-249 -459 0
-249 -460 0
-256 458 0
-256 -459 0
-256 -460 0
-263 -458 0
-263 459 0
-263 -460 0
-270 458 0
-270 459 0
-270 -460 0
-277 -458 0
-277 -459 0
-277 460 0
-284 458 0
-284 -459 0
-284 460 0
-291 -458 0
-291 459 0
-291 460 0
-250 -461 0
-250 -462 0
-250 -463 0
-257 461 0
-257 -462 0
-257 -463 0
-264 -461 0
-264 462 0
-264 -463 0
-271 461 0
-271 462 0
-271 -463 0
-278 -461 0
-278 -462 0
-278 463 0
-285 461 0
-285 -462 0
-285 463 0
-292 -461 0
-292 462 0
-292 463 0
-251 -464 0
-251 -465 0
-251 -466 0
-258 464 0
-258 -465 0
-258 -466 0
-265 -464 0
-265 465 0
-265 -466 0
-272 464 0
-272 465 0
-272 -466 0
-279 -464 0
-279 -465 0
-279 466 0
-286 464 0
-286 -465 0
-286 466 0
-293 -464 0
-293 465 0
-293 466 0
-252 -467 0
-252 -468 0
-252 -469 0
-259 467 0
-259 -468 0
-259 -469 0
-266 -467 0
-266 468 0
-266 -469 0
-273 467 0
-273 468 0
-273 -469 0
-280 -467 0
-280 -468 0
-280 469 0
-287 467 0
-287 -468 0
-287 469 0
-294 -467 0
-294 468 0
-294 469 0
-295 -470 0
-295 -471 0
-295 -472 0
-302 470 0
-302 -471 0
-302 -472 0
-309 -470 0
-309 471 0
-309 -472 0
-316 470 0
-316 471 0
-316 -472 0
-323 -470 0
-323 -471 0
-323 472 0
-330 470 0
-330 -471 0
-330 472 0
-337 -470 0
-337 471 0
-337 472 0
-296 -473 0
-296 -474 0
-296 -475 0
-303 473 0
-303 -474 0
-303 -475 0
-310 -473 0
-310 474 0
-310 -475 0
-317 473 0
-317 474 0
-317 -475 0
-324 -473 0
-324 -474 0
-324 475 0
-331 473 0
-331 -474 0
-331 475 0
-338 -473 0
-338 474 0
-338 475 0
-297 -476 0
-297 -477 0
-297 -478 0
-304 476 0
-304 -477 0
-304 -478 0
-311 -476 0
-311 477 0
-311 -478 0
-318 476 0
-318 477 0
-318 -478 0
-325 -476 0
-325 -477 0
-325 478 0
-332 476 0
-332 -477 0
-332 478 0
-339 -476 0
-339 477 0
-339 478 0
-298 -479 0
-298 -480 0
-298 -481 0
-305 479 0
-305 -480 0
-305 -481 0
-312 -479 0
-312 480 0
-312 -481 0
-319 479 0
-319 480 0
-319 -481 0
-326 -479 0
-326 -480 0
-326 481 0
-333 479 0
-333 -480 0
-333 481 0
-340 -479 0
-340 480 0
-340 481 0
-299 -482 0
-299 -483 0
-299 -484 0
-306 482 0
-306 -483 0
-306 -484 0
-313 -482 0
-313 483 0
-313 -484 0
-320 482 0
-320 483 0
-320 -484 0
-327 -482 0
-327 -483 0
-327 484 0
-334 482 0
-334 -483 0
-334 484 0
-341 -482 0
-341 483 0
-341 484 0
-300 -485 0
-300 -486 0
-300 -487 0
-307 485 0
-307 -486 0
-307 -487 0
-314 -485 0
-314 486 0
-314 -487 0
-321 485 0
-321 486 0
-321 -487 0
-328 -485 0
-328 -486 0
-328 487 0
-335 485 0
-335 -486 0
-335 487 0
-342 -485 0
-342 486 0
-342 487 0
-301 -488 0
-301 -489 0
-301 -490 0
-308 488 0
-308 -489 0
-308 -490 0
-315 -488 0
-315 489 0
-315 -490 0
-322 488 0
-322 489 0
-322 -490 0
-329 -488 0
-329 -489 0
-329 490 0
-336 488 0
-336 -489 0
-336 490 0
-343 -488 0
-343 489 0
-343 490 0
-1 -491 0
-1 -492 0
-1 -493 0
-50 491 0
-50 -492 0
-50 -493 0
-99 -491 0
-99 492 0
-99 -493 0
-148 491 0
-148 492 0
-148 -493 0
-197 -491 0
-197 -492 0
-197 493 0
-246 491 0
-246 -492 0
-246 493 0
-295 -491 0
-295 492 0
-295 493 0
-2 -494 0
-2 -495 0
-2 -496 0
-51 494 0
-51 -495 0
-51 -496 0
-100 -494 0
-100 495 0
-100 -496 0
-149 494 0
-149 495 0
-149 -496 0
-198 -494 0
-198 -495 0
-198 496 0
-247 494 0
-247 -495 0
-247 496 0
-296 -494 0
-296 495 0
-296 496 0
-3 -497 0
-3 -498 0
-3 -499 0
-52 497 0
-52 -498 0
-52 -499 0
-101 -497 0
-101 498 0
-101 -499 0
-150 497 0
-150 498 0
-150 -499 0
-199 -497 0
-199 -498 0
-199 499 0
-248 497 0
-248 -498 0
-248 499 0
-297 -497 0
-297 498 0
-297 499 0
-4 -500 0
-4 -501 0
-4 -502 0
-53 500 0
-53 -501 0
-53 -502 0
-102 -500 0
-102 501 0
-102 -502 0
-151 500 0
-151 501 0
-151 -502 0
-200 -500 0
-200 -501 0
-200 502 0
-249 500 0
-249 -501 0
-249 502 0
-298 -500 0
-298 501 0
-298 502 0
-5 -503 0
-5 -504 0
-5 -505 0
-54 503 0
-54 -504 0
-54 -505 0
-103 -503 0
-103 504 0
-103 -505 0
-152 503 0
-152 504 0
-152 -505 0
-201 -503 0
-201 -504 0
-201 505 0
-250 503 0
-250 -504 0
-250 505 0
-299 -503 0
-299 504 0
-299 505 0
-6 -506 0
-6 -507 0
-6 -508 0
-55 506 0
-55 -507 0
-55 -508 0
-104 -506 0
-104 507 0
-104 -508 0
-153 506 0
-153 507 0
-153 -508 0
-202 -506 0
-202 -507 0
-202 508 0
-251 506 0
-251 -507 0
-251 508 0
-300 -506 0
-300 507 0
-300 508 0
-7 -509 0
-7 -510 0
-7 -511 0
-56 509 0
-56 -510 0
-56 -511 0
-105 -509 0
-105 510 0
-105 -511 0
-154 509 0
-154 510 0
-154 -511 0
-203 -509 0
-203 -510 0
-203 511 0
-252 509 0
-252 -510 0
-252 511 0
-301 -509 0
-301 510 0
-301 511 0
-8 -512 0
-8 -513 0
-8 -514 0
-57 512 0
-57 -513 0
-57 -514 0
-106 -512 0
-106 513 0
-106 -514 0
-155 512 0
-155 513 0
-155 -514 0
-204 -512 0
-204 -513 0
-204 514 0
-253 512 0
-253 -513 0
-253 514 0
-302 -512 0
-302 513 0
-302 514 0
-9 -515 0
-9 -516 0
-9 -517 0
-58 515 0
-58 -516 0
-58 -517 0
-107 -515 0
-107 516 0
-107 -517 0
-156 515 0
-156 516 0
-156 -517 0
-205 -515 0
-205 -516 0
-205 517 0
-254 515 0
-254 -516 0
-254 517 0
-303 -515 0
-303 516 0
-303 517 0
-10 -518 0
-10 -519 0
-10 -520 0
-59 518 0
-59 -519 0
-59 -520 0
-108 -518 0
-108 519 0
-108 -520 0
-157 518 0
-157 519 0
-157 -520 0
-206 -518 0
-206 -519 0
-206 520 0
-255 518 0
-255 -519 0
-255 520 0
-304 -518 0
-304 519 0
-304 520 0
-11 -521 0
-11 -522 0
-11 -523 0
-60 521 0
-60 -522 0
-60 -523 0
-109 -521 0
-109 522 0
-109 -523 0
-158 521 0
-158 522 0
-158 -523 0
-207 -521 0
-207 -522 0
-207 523 0
-256 521 0
-256 -522 0
-256 523 0
-305 -521 0
-305 522 0
-305 523 0
-12 -524 0
-12 -525 0
-12 -526 0
-61 524 0
-61 -525 0
-61 -526 0
-110 -524 0
-110 525 0
-110 -526 0
-159 524 0
-159 525 0
-159 -526 0
-208 -524 0
-208 -525 0
-208 526 0
-257 524 0
-257 -525 0
-257 526 0
-306 -524 0
-306 525 0
-306 526 0
-13 -527 0
-13 -528 0
-13 -529 0
-62 527 0
-62 -528 0
-62 -529 0
-111 -527 0
-111 528 0
-111 -529 0
-160 527 0
-160 528 0
-160 -529 0
-209 -527 0
-209 -528 0
-209 529 0
-258 527 0
-258 -528 0
-258 529 0
-307 -527 0
-307 528 0
-307 529 0
-14 -530 0
-14 -531 0
-14 -532 0
-63 530 0
-63 -531 0
-63 -532 0
-112 -530 0
-112 531 0
-112 -532 0
-161 530 0
-161 531 0
-161 -532 0
-210 -530 0
-210 -531 0
-210 532 0
-259 530 0
-259 -531 0
-259 532 0
-308 -530 0
-308 531 0
-308 532 0
-15 -533 0
-15 -534 0
-15 -535 0
-64 533 0
-64 -534 0
-64 -535 0
-113 -533 0
-113 534 0
-113 -535 0
-162 533 0
-162 534 0
-162 -535 0
-211 -533 0
-211 -534 0
-211 535 0
-260 533 0
-260 -534 0
-260 535 0
-309 -533 0
-309 534 0
-309 535 0
-16 -536 0
-16 -537 0
-16 -538 0
-65 536 0
-65 -537 0
-65 -538 0
-114 -536 0
-114 537 0
-114 -538 0
-163 536 0
-163 537 0
-163 -538 0
-212 -536 0
-212 -537 0
-212 538 0
-261 536 0
-261 -537 0
-261 538 0
-310 -536 0
-310 537 0
-310 538 0
-17 -539 0
-17 -540 0
-17 -541 0
-66 539 0
-66 -540 0
-66 -541 0
-115 -539 0
-115 540 0
-115 -541 0
-164 539 0
-164 540 0
-164 -541 0
-213 -539 0
-213 -540 0
-213 541 0
-262 539 0
-262 -540 0
-262 541 0
-311 -539 0
-311 540 0
-311 541 0
-18 -542 0
-18 -543 0
-18 -544 0
-67 542 0
-67 -543 0
-67 -544 0
-116 -542 0
-116 543 0
-116 -544 0
-165 542 0
-165 543 0
-165 -544 0
-214 -542 0
-214 -543 0
-214 544 0
-263 542 0
-263 -543 0
-263 544 0
-312 -542 0
-312 543 0
-312 544 0
-19 -545 0
-19 -546 0
-19 -547 0
-68 545 0
-68 -546 0
-68 -547 0
-117 -545 0
-117 546 0
-117 -547 0
-166 545 0
-166 546 0
-166 -547 0
-215 -545 0
-215 -546 0
-215 547 0
-264 545 0
-264 -546 0
-264 547 0
-313 -545 0
-313 546 0
-313 547 0
-20 -548 0
-20 -549 0
-20 -550 0
-69 548 0
-69 -549 0
-69 -550 0
-118 -548 0
-118 549 0
-118 -550 0
-167 548 0
-167 549 0
-167 -550 0
-216 -548 0
-216 -549 0
-216 550 0
-265 548 0
-265 -549 0
-265 550 0
-314 -548 0
-314 549 0
-314 550 0
-21 -551 0
-21 -552 0
-21 -553 0
-70 551 0
-70 -552 0
-70 -553 0
-119 -551 0
-119 552 0
-119 -553 0
-168 551 0
-168 552 0
-168 -553 0
-217 -551 0
-217 -552 0
-217 553 0
-266 551 0
-266 -552 0
-266 553 0
-315 -551 0
-315 552 0
-315 553 0
-22 -554 0
-22 -555 0
-22 -556 0
-71 554 0
-71 -555 0
-71 -556 0
-120 -554 0
-120 555 0
-120 -556 0
-169 554 0
-169 555 0
-169 -556 0
-218 -554 0
-218 -555 0
-218 556 0
-267 554 0
-267 -555 0
-267 556 0
-316 -554 0
-316 555 0
-316 556 0
-23 -557 0
-23 -558 0
-23 -559 0
-72 557 0
-72 -558 0
-72 -559 0
-121 -557 0
-121 558 0
-121 -559 0
-170 557 0
-170 558 0
-170 -559 0
-219 -557 0
-219 -558 0
-219 559 0
-268 557 0
-268 -558 0
-268 559 0
-317 -557 0
-317 558 0
-317 559 0
-24 -560 0
-24 -561 0
-24 -562 0
-73 560 0
-73 -561 0
-73 -562 0
-122 -560 0
-122 561 0
-122 -562 0
-171 560 0
-171 561 0
-171 -562 0
-220 -560 0
-220 -561 0
-220 562 0
-269 560 0
-269 -561 0
-269 562 0
-318 -560 0
-318 561 0
-318 562 0
-25 -563 0
-25 -564 0
-25 -565 0
-74 563 0
-74 -564 0
-74 -565 0
-123 -563 0
-123 564 0
-123 -565 0
-172 563 0
-172 564 0
-172 -565 0
-221 -563 0
-221 -564 0
-221 565 0
-270 563 0
-270 -564 0
-270 565 0
-319 -563 0
-319 564 0
-319 565 0
-26 -566 0
-26 -567 0
-26 -568 0
-75 566 0
-75 -567 0
-75 -568 0
-124 -566 0
-124 567 0
-124 -568 0
-173 566 0
-173 567 0
-173 -568 0
-222 -566 0
-222 -567 0
-222 568 0
-271 566 0
-271 -567 0
-271 568 0
-320 -566 0
-320 567 0
-320 568 0
-27 -569 0
-27 -570 0
-27 -571 0
-76 569 0
-76 -570 0
-76 -571 0
-125 -569 0
-125 570 0
-125 -571 0
-174 569 0
-174 570 0
-174 -571 0
-223 -569 0
-223 -570 0
-223 571 0
-272 569 0
-272 -570 0
-272 571 0
-321 -569 0
-321 570 0
-321 571 0
-28 -572 0
-28 -573 0
-28 -574 0
-77 572 0
-77 -573 0
-77 -574 0
-126 -572 0
-126 573 0
-126 -574 0
-175 572 0
-175 573 0
-175 -574 0
-224 -572 0
-224 -573 0
-224 574 0
-273 572 0
-273 -573 0
-273 574 0
-322 -572 0
-322 573 0
-322 574 0
-29 -575 0
-29 -576 0
-29 -577 0
-78 575 0
-78 -576 0
-78 -577 0
-127 -575 0
-127 576 0
-127 -577 0
-176 575 0
-176 576 0
-176 -577 0
-225 -575 0
-225 -576 0
-225 577 0
-274 575 0
-274 -576 0
-274 577 0
-323 -575 0
-323 576 0
-323 577 0
-30 -578 0
-30 -579 0
-30 -580 0
-79 578 0
-79 -579 0
-79 -580 0
-128 -578 0
-128 579 0
-128 -580 0
-177 578 0
-177 579 0
-177 -580 0
-226 -578 0
-226 -579 0
-226 580 0
-275 578 0
-275 -579 0
-275 580 0
-324 -578 0
-324 579 0
-324 580 0
-31 -581 0
-31 -582 0
-31 -583 0
-80 581 0
-80 -582 0
-80 -583 0
-129 -581 0
-129 582 0
-129 -583 0
-178 581 0
-178 582 0
-178 -583 0
-227 -581 0
-227 -582 0
-227 583 0
-276 581 0
-276 -582 0
-276 583 0
-325 -581 0
-325 582 0
-325 583 0
-32 -584 0
-32 -585 0
-32 -586 0
-81 584 0
-81 -585 0
-81 -586 0
-130 -584 0
-130 585 0
-130 -586 0
-179 584 0
-179 585 0
-179 -586 0
-228 -584 0
-228 -585 0
-228 586 0
-277 584 0
-277 -585 0
-277 586 0
-326 -584 0
-326 585 0
-326 586 0
-33 -587 0
-33 -588 0
-33 -589 0
-82 587 0
-82 -588 0
-82 -589 0
-131 -587 0
-131 588 0
-131 -589 0
-180 587 0
-180 588 0
-180 -589 0
-229 -587 0
-229 -588 0
-229 589 0
-278 587 0
-278 -588 0
-278 589 0
-327 -587 0
-327 588 0
-327 589 0
-34 -590 0
-34 -591 0
-34 -592 0
-83 590 0
-83 -591 0
-83 -592 0
-132 -590 0
-132 591 0
-132 -592 0
-181 590 0
-181 591 0
-181 -592 0
-230 -590 0
-230 -591 0
-230 592 0
-279 590 0
-279 -591 0
-279 592 0
-328 -590 0
-328 591 0
-328 592 0
-35 -593 0
-35 -594 0
-35 -595 0
-84 593 0
-84 -594 0
-84 -595 0
-133 -593 0
-133 594 0
-133 -595 0
-182 593 0
-182 594 0
-182 -595 0
-231 -593 0
-231 -594 0
-231 595 0
-280 593 0
-280 -594 0
-280 595 0
-329 -593 0
-329 594 0
-329 595 0
-36 -596 0
-36 -597 0
-36 -598 0
-85 596 0
-85 -597 0
-85 -598 0
-134 -596 0
-134 597 0
-134 -598 0
-183 596 0
-183 597 0
-183 -598 0
-232 -596 0
-232 -597 0
-232 598 0
-281 596 0
-281 -597 0
-281 598 0
-330 -596 0
-330 597 0
-330 598 0
-37 -599 0
-37 -600 0
-37 -601 0
-86 599 0
-86 -600 0
-86 -601 0
-135 -599 0
-135 600 0
-135 -601 0
-184 599 0
-184 600 0
-184 -601 0
-233 -599 0
-233 -600 0
-233 601 0
-282 599 0
-282 -600 0
-282 601 0
-331 -599 0
-331 600 0
-331 601 0
-38 -602 0
-38 -603 0
-38 -604 0
-87 602 0
-87 -603 0
-87 -604 0
-136 -602 0
-136 603 0
-136 -604 0
-185 602 0
-185 603 0
-185 -604 0
-234 -602 0
-234 -603 0
-234 604 0
-283 602 0
-283 -603 0
-283 604 0
-332 -602 0
-332 603 0
-332 604 0
-39 -605 0
-39 -606 0
-39 -607 0
-88 605 0
-88 -606 0
-88 -607 0
-137 -605 0
-137 606 0
-137 -607 0
-186 605 0
-186 606 0
-186 -607 0
-235 -605 0
-235 -606 0
-235 607 0
-284 605 0
-284 -606 0
-284 607 0
-333 -605 0
-333 606 0
-333 607 0
-40 -608 0
-40 -609 0
-40 -610 0
-89 608 0
-89 -609 0
-89 -610 0
-138 -608 0
-138 609 0
-138 -610 0
-187 608 0
-187 609 0
-187 -610 0
-236 -608 0
-236 -609 0
-236 610 0
-285 608 0
-285 -609 0
-285 610 0
-334 -608 0
-334 609 0
-334 610 0
-41 -611 0
-41 -612 0
-41 -613 0
-90 611 0
-90 -612 0
-90 -613 0
-139 -611 0
-139 612 0
-139 -613 0
-188 611 0
-188 612 0
-188 -613 0
-237 -611 0
-237 -612 0
-237 613 0
-286 611 0
-286 -612 0
-286 613 0
-335 -611 0
-335 612 0
-335 613 0
-42 -614 0
-42 -615 0
-42 -616 0
-91 614 0
-91 -615 0
-91 -616 0
-140 -614 0
-140 615 0
-140 -616 0
-189 614 0
-189 615 0
-189 -616 0
-238 -614 0
-238 -615 0
-238 616 0
-287 614 0
-287 -615 0
-287 616 0
-336 -614 0
-336 615 0
-336 616 0
-43 -617 0
-43 -618 0
-43 -619 0
-92 617 0
-92 -618 0
-92 -619 0
-141 -617 0
-141 618 0
-141 -619 0
-190 617 0
-190 618 0
-190 -619 0
-239 -617 0
-239 -618 0
-239 619 0
-288 617 0
-288 -618 0
-288 619 0
-337 -617 0
-337 618 0
-337 619 0
-44 -620 0
-44 -621 0
-44 -622 0
-93 620 0
-93 -621 0
-93 -622 0
-142 -620 0
-142 621 0
-142 -622 0
-191 620 0
-191 621 0
-191 -622 0
-240 -620 0
-240 -621 0
-240 622 0
-289 620 0
-289 -621 0
-289 622 0
-338 -620 0
-338 621 0
-338 622 0
-45 -623 0
-45 -624 0
-45 -625 0
-94 623 0
-94 -624 0
-94 -625 0
-143 -623 0
-143 624 0
-143 -625 0
-192 623 0
-192 624 0
-192 -625 0
-241 -623 0
-241 -624 0
-241 625 0
-290 623 0
-290 -624 0
-290 625 0
-339 -623 0
-339 624 0
-339 625 0
-46 -626 0
-46 -627 0
-46 -628 0
-95 626 0
-95 -627 0
-95 -628 0
-144 -626 0
-144 627 0
-144 -628 0
-193 626 0
-193 627 0
-193 -628 0
-242 -626 0
-242 -627 0
-242 628 0
-291 626 0
-291 -627 0
-291 628 0
-340 -626 0
-340 627 0
-340 628 0
-47 -629 0
-47 -630 0
-47 -631 0
-96 629 0
-96 -630 0
-96 -631 0
-145 -629 0
-145 630 0
-145 -631 0
-194 629 0
-194 630 0
-194 -631 0
-243 -629 0
-243 -630 0
-243 631 0
-292 629 0
-292 -630 0
-292 631 0
-341 -629 0
-341 630 0
-341 631 0
-48 -632 0
-48 -633 0
-48 -634 0
-97 632 0
-97 -633 0
-97 -634 0
-146 -632 0
-146 633 0
-146 -634 0
-195 632 0
-195 633 0
-195 -634 0
-244 -632 0
-244 -633 0
-244 634 0
-293 632 0
-293 -633 0
-293 634 0
-342 -632 0
-342 633 0
-342 634 0
-49 -635 0
-49 -636 0
-49 -637 0
-98 635 0
-98 -636 0
-98 -637 0
-147 -635 0
-147 636 0
-147 -637 0
-196 635 0
-196 636 0
-196 -637 0
-245 -635 0
-245 -636 0
-245 637 0
-294 635 0
-294 -636 0
-294 637 0
-343 -635 0
-343 636 0
-343 637 0
